language ESSENCE' 1.0

letting selected_Occurrence be
        [false, false, false, true, false, false, false, false, true, false, true, false, false, true, false, false,
         false, false, false, true, true, false, false, true, false, false, false, true, false, true, false, true,
         false, false, false, false, false, true, false, false;
             int(1..40)]
